(set-info :smt-lib-version 2.6)
(set-info :category "crafted")
(set-logic QF_FFA)
(define-sort FF0 () (_ FiniteField 52435875175126190479447740508185965837690552500527637822603658699938581184513))
(declare-fun b () Bool)
(declare-fun f () Bool)
(declare-fun d () Bool)
(declare-fun e () Bool)
(declare-fun c () Bool)
(declare-fun a () Bool)
(declare-fun out () FF0)
(declare-fun _184 () FF0)
(declare-fun _114 () FF0)
(declare-fun _183 () FF0)
(declare-fun _125 () FF0)
(declare-fun _182 () FF0)
(declare-fun _126 () FF0)
(declare-fun _181 () FF0)
(declare-fun _145 () FF0)
(declare-fun _180 () FF0)
(declare-fun _154 () FF0)
(declare-fun _179 () FF0)
(declare-fun _156 () FF0)
(declare-fun _178 () FF0)
(declare-fun _162 () FF0)
(declare-fun _161 () FF0)
(declare-fun _177 () FF0)
(declare-fun _168 () FF0)
(declare-fun _176 () FF0)
(declare-fun _141 () FF0)
(declare-fun _174 () FF0)
(declare-fun _173 () FF0)
(declare-fun _103 () FF0)
(declare-fun _144 () FF0)
(declare-fun _164 () FF0)
(declare-fun _77 () FF0)
(declare-fun _167 () FF0)
(declare-fun _99 () FF0)
(declare-fun _166 () FF0)
(declare-fun _101 () FF0)
(declare-fun _150 () FF0)
(declare-fun _149 () FF0)
(declare-fun _61 () FF0)
(declare-fun _117 () FF0)
(declare-fun _157 () FF0)
(declare-fun _106 () FF0)
(declare-fun _138 () FF0)
(declare-fun _137 () FF0)
(declare-fun _16 () FF0)
(declare-fun _15 () FF0)
(declare-fun _152 () FF0)
(declare-fun _142 () FF0)
(declare-fun _105 () FF0)
(declare-fun _127 () FF0)
(declare-fun _60 () FF0)
(declare-fun _143 () FF0)
(declare-fun _44 () FF0)
(declare-fun _133 () FF0)
(declare-fun _140 () FF0)
(declare-fun _64 () FF0)
(declare-fun _63 () FF0)
(declare-fun _42 () FF0)
(declare-fun _84 () FF0)
(declare-fun _78 () FF0)
(declare-fun _132 () FF0)
(declare-fun _4 () FF0)
(declare-fun _131 () FF0)
(declare-fun _130 () FF0)
(declare-fun _62 () FF0)
(declare-fun _129 () FF0)
(declare-fun _90 () FF0)
(declare-fun _2 () FF0)
(declare-fun _0 () FF0)
(declare-fun _115 () FF0)
(declare-fun _55 () FF0)
(declare-fun _54 () FF0)
(declare-fun _123 () FF0)
(declare-fun _122 () FF0)
(declare-fun _96 () FF0)
(declare-fun _116 () FF0)
(declare-fun _5 () FF0)
(declare-fun _111 () FF0)
(declare-fun _110 () FF0)
(declare-fun _71 () FF0)
(declare-fun _70 () FF0)
(declare-fun _80 () FF0)
(declare-fun _104 () FF0)
(declare-fun _38 () FF0)
(declare-fun _37 () FF0)
(declare-fun _26 () FF0)
(declare-fun _100 () FF0)
(declare-fun _59 () FF0)
(declare-fun _98 () FF0)
(declare-fun _97 () FF0)
(declare-fun _50 () FF0)
(declare-fun _95 () FF0)
(declare-fun _94 () FF0)
(declare-fun _93 () FF0)
(declare-fun _92 () FF0)
(declare-fun _3 () FF0)
(declare-fun _91 () FF0)
(declare-fun _89 () FF0)
(declare-fun _88 () FF0)
(declare-fun _87 () FF0)
(declare-fun _43 () FF0)
(declare-fun _86 () FF0)
(declare-fun _83 () FF0)
(declare-fun _22 () FF0)
(declare-fun _21 () FF0)
(declare-fun _82 () FF0)
(declare-fun _76 () FF0)
(declare-fun _75 () FF0)
(declare-fun _74 () FF0)
(declare-fun _66 () FF0)
(declare-fun _10 () FF0)
(declare-fun _9 () FF0)
(declare-fun _33 () FF0)
(declare-fun _58 () FF0)
(declare-fun _57 () FF0)
(declare-fun _1 () FF0)
(declare-fun _49 () FF0)
(declare-fun _48 () FF0)
(declare-fun _47 () FF0)
(declare-fun _41 () FF0)
(declare-fun _32 () FF0)
(declare-fun _31 () FF0)
(declare-fun _30 () FF0)
(declare-fun _29 () FF0)
(declare-fun _28 () FF0)
(declare-fun _27 () FF0)
(declare-fun _25 () FF0)
(declare-fun _24 () FF0)
(assert 
  (let ((let0 b))
  (let ((let1 f))
  (let ((let2 d))
  (let ((let3 e))
  (let ((let4 c))
  (let ((let5 (ite let4 let3 let2)))
  (let ((let6 (ite let5 let1 let0)))
  (let ((let7 a))
  (let ((let8 (ite let7 let2 let0)))
  (let ((let9 (or let1 let8 let3 let7)))
  (let ((let10 (and let8 let5 let9 let6 let9 let7 let9 let4)))
  (let ((let11 (ite let10 let3 let10)))
  (let ((let12 (not let1)))
  (let ((let13 (or let12 let11 let6)))
  (let ((let14 (=> let6 let11)))
  (let ((let15 (= let12 let14)))
  (let ((let16 (not let2)))
  (let ((let17 (or let16 let16 let15 let5 let14)))
  (let ((let18 (ite let0 let12 let13)))
  (let ((let19 (and let18 let17 let10 let13)))
  (let ((let20 (or let14 let19)))
  (let ((let21 (and let20 let13)))
  (let ((let22 (and let10 let20)))
  (let ((let23 (=> let12 let17)))
  (let ((let24 (= let5 let23)))
  (let ((let25 (=> let19 let24)))
  (let ((let26 (ite let25 let22 let21)))
  (let ((let27 (not let7)))
  (let ((let28 (and let18 let4 let2 let27 let15)))
  (let ((let29 (= let28 let17)))
  (let ((let30 (= let8 let29)))
  (let ((let31 (or let18 let27 let11 let8)))
  (let ((let32 (not let31)))
  (let ((let33 (or let28 let31 let13 let14 let27 let3)))
  (let ((let34 (and let33 let33 let16 let9 let32 let15 let32)))
  (let ((let35 (or let24 let34 let17 let30)))
  (let ((let36 (and let19 let33 let32)))
  (let ((let37 (not let36)))
  (let ((let38 (=> let9 let11)))
  (let ((let39 (and let38 let37 let35)))
  (let ((let40 (=> let23 let30)))
  (let ((let41 (ite let40 let39 let26)))
  (let ((let42 (not let41)))
  (let ((let43 (=> let36 let42)))
  (let ((let44 (=> let1 let24)))
  (let ((let45 (or let6 let1)))
  (let ((let46 (or let45 let34)))
  (let ((let47 (not let28)))
  (let ((let48 (ite let34 let47 let46)))
  (let ((let49 (or let48 let44)))
  (let ((let50 (=> let18 let44)))
  (let ((let51 (= let7 let31)))
  (let ((let52 (and let4 let33 let22 let37 let3 let29)))
  (let ((let53 (ite let13 let32 let23)))
  (let ((let54 (ite let53 let52 let52)))
  (let ((let55 (and let24 let54 let51)))
  (let ((let56 (=> let54 let52)))
  (let ((let57 (and let15 let56 let20)))
  (let ((let58 (=> let57 let55)))
  (let ((let59 (ite let37 let40 let51)))
  (let ((let60 (= let56 let39)))
  (let ((let61 (= let60 let59)))
  (let ((let62 (and let6 let53)))
  (let ((let63 (=> let59 let40)))
  (let ((let64 (ite let46 let63 let36)))
  (let ((let65 (= let21 let59)))
  (let ((let66 (and let65 let36 let35 let47)))
  (let ((let67 (not let55)))
  (let ((let68 (ite let57 let65 let38)))
  (let ((let69 (and let68 let67 let66 let64 let62 let61 let58 let50 let49 let43)))
  (let ((let70 out))
  (let ((let71 (as ff1 FF0)))
  (let ((let72 (= let71 let70)))
  (let ((let73 (= let72 let69)))
  (let ((let74 (as ff0 FF0)))
  (let ((let75 (= let74 let70)))
  (let ((let76 (or let72 let75)))
  (let ((let77 (and let76 let73)))
  (let ((let78 _184))
  (let ((let79 (= let78 let70)))
  (let ((let80 _114))
  (let ((let81 _183))
  (let ((let82 (ff.mul let81 let80)))
  (let ((let83 (= let82 let78)))
  (let ((let84 _125))
  (let ((let85 _182))
  (let ((let86 (ff.mul let85 let84)))
  (let ((let87 (= let86 let81)))
  (let ((let88 _126))
  (let ((let89 _181))
  (let ((let90 (ff.mul let89 let88)))
  (let ((let91 (= let90 let85)))
  (let ((let92 _145))
  (let ((let93 _180))
  (let ((let94 (ff.mul let93 let92)))
  (let ((let95 (= let94 let89)))
  (let ((let96 (as ff52435875175126190479447740508185965837690552500527637822603658699938581184512 FF0)))
  (let ((let97 _154))
  (let ((let98 (ff.mul let97 let96)))
  (let ((let99 (ff.add let98 let71)))
  (let ((let100 _179))
  (let ((let101 (ff.mul let100 let99)))
  (let ((let102 (= let101 let93)))
  (let ((let103 _156))
  (let ((let104 _178))
  (let ((let105 (ff.mul let104 let103)))
  (let ((let106 (= let105 let100)))
  (let ((let107 _162))
  (let ((let108 _161))
  (let ((let109 (ff.add let108 let107)))
  (let ((let110 _177))
  (let ((let111 (ff.mul let110 let109)))
  (let ((let112 (= let111 let104)))
  (let ((let113 _168))
  (let ((let114 _176))
  (let ((let115 (ff.mul let114 let113)))
  (let ((let116 (= let115 let110)))
  (let ((let117 _141))
  (let ((let118 (ff.mul let117 let96)))
  (let ((let119 (ff.add let118 let71)))
  (let ((let120 _174))
  (let ((let121 _173))
  (let ((let122 (ff.add let121 let120)))
  (let ((let123 (ff.mul let122 let119)))
  (let ((let124 (= let123 let114)))
  (let ((let125 _103))
  (let ((let126 _144))
  (let ((let127 (ff.mul let126 let96)))
  (let ((let128 (ff.add let127 let71)))
  (let ((let129 (ff.mul let128 let125)))
  (let ((let130 (= let129 let120)))
  (let ((let131 _164))
  (let ((let132 (ff.mul let131 let96)))
  (let ((let133 (ff.add let132 let71)))
  (let ((let134 (ff.mul let126 let133)))
  (let ((let135 (= let134 let121)))
  (let ((let136 _77))
  (let ((let137 (ff.mul let136 let96)))
  (let ((let138 (ff.add let137 let71)))
  (let ((let139 _167))
  (let ((let140 (ff.mul let139 let138)))
  (let ((let141 (= let140 let113)))
  (let ((let142 _99))
  (let ((let143 _166))
  (let ((let144 (ff.mul let143 let142)))
  (let ((let145 (= let144 let139)))
  (let ((let146 _101))
  (let ((let147 (ff.mul let133 let146)))
  (let ((let148 (= let147 let143)))
  (let ((let149 _150))
  (let ((let150 (ff.mul let149 let96)))
  (let ((let151 _149))
  (let ((let152 (ff.mul let151 let96)))
  (let ((let153 _61))
  (let ((let154 (ff.add let153 let152 let150)))
  (let ((let155 (ff.mul let154 let154)))
  (let ((let156 (= let155 let131)))
  (let ((let157 _117))
  (let ((let158 (ff.mul let157 let96)))
  (let ((let159 (ff.add let158 let71)))
  (let ((let160 (ff.mul let159 let146)))
  (let ((let161 (= let160 let107)))
  (let ((let162 _157))
  (let ((let163 (ff.mul let157 let162)))
  (let ((let164 (= let163 let108)))
  (let ((let165 (ff.mul let162 let96)))
  (let ((let166 _106))
  (let ((let167 (ff.add let166 let152 let150 let165 let71)))
  (let ((let168 (ff.add let152 let150 let71)))
  (let ((let169 (ff.mul let168 let166)))
  (let ((let170 (= let169 let167)))
  (let ((let171 _138))
  (let ((let172 _137))
  (let ((let173 (ff.add let172 let171)))
  (let ((let174 _16))
  (let ((let175 _15))
  (let ((let176 (ff.add let175 let174)))
  (let ((let177 (ff.mul let176 let173)))
  (let ((let178 (= let177 let103)))
  (let ((let179 _152))
  (let ((let180 (ff.mul let179 let96)))
  (let ((let181 (ff.add let152 let150 let180 let71)))
  (let ((let182 (ff.mul let181 let181)))
  (let ((let183 (= let182 let97)))
  (let ((let184 _142))
  (let ((let185 _105))
  (let ((let186 (ff.mul let185 let96)))
  (let ((let187 (ff.add let186 let184)))
  (let ((let188 (ff.mul let187 let187)))
  (let ((let189 (= let188 let179)))
  (let ((let190 _127))
  (let ((let191 (ff.mul let190 let96)))
  (let ((let192 (ff.add let191 let71)))
  (let ((let193 (ff.mul let146 let192)))
  (let ((let194 (= let193 let149)))
  (let ((let195 (ff.mul let146 let96)))
  (let ((let196 (ff.add let195 let71)))
  (let ((let197 (ff.mul let196 let166)))
  (let ((let198 (= let197 let151)))
  (let ((let199 (ff.mul let92 let96)))
  (let ((let200 (ff.add let117 let127 let199 let71)))
  (let ((let201 (ff.mul let128 let117)))
  (let ((let202 (= let201 let200)))
  (let ((let203 _60))
  (let ((let204 _143))
  (let ((let205 (ff.mul let204 let203)))
  (let ((let206 (= let205 let126)))
  (let ((let207 _44))
  (let ((let208 (ff.mul let207 let96)))
  (let ((let209 (ff.add let208 let71)))
  (let ((let210 (ff.mul let209 let184)))
  (let ((let211 (= let210 let204)))
  (let ((let212 (ff.mul let184 let96)))
  (let ((let213 (ff.add let212 let71)))
  (let ((let214 _133))
  (let ((let215 (ff.mul let214 let96)))
  (let ((let216 (ff.add let215 let71)))
  (let ((let217 (ff.mul let216 let214)))
  (let ((let218 (= let217 let213)))
  (let ((let219 _140))
  (let ((let220 (ff.mul let219 let192)))
  (let ((let221 (= let220 let117)))
  (let ((let222 _64))
  (let ((let223 (ff.mul let222 let96)))
  (let ((let224 (ff.add let223 let71)))
  (let ((let225 (ff.mul let224 let214)))
  (let ((let226 (= let225 let219)))
  (let ((let227 _63))
  (let ((let228 _42))
  (let ((let229 (ff.mul let228 let96)))
  (let ((let230 (ff.add let229 let71)))
  (let ((let231 (ff.mul let230 let227)))
  (let ((let232 (= let231 let171)))
  (let ((let233 _84))
  (let ((let234 (ff.mul let233 let96)))
  (let ((let235 (ff.add let234 let71)))
  (let ((let236 (ff.mul let228 let235)))
  (let ((let237 (= let236 let172)))
  (let ((let238 _78))
  (let ((let239 (ff.mul let238 let96)))
  (let ((let240 (ff.add let239 let71)))
  (let ((let241 _132))
  (let ((let242 (ff.mul let241 let240)))
  (let ((let243 (= let242 let214)))
  (let ((let244 _4))
  (let ((let245 _131))
  (let ((let246 (ff.mul let245 let244)))
  (let ((let247 (= let246 let241)))
  (let ((let248 _130))
  (let ((let249 (ff.mul let248 let196)))
  (let ((let250 (= let249 let245)))
  (let ((let251 _62))
  (let ((let252 _129))
  (let ((let253 (ff.mul let252 let251)))
  (let ((let254 (= let253 let248)))
  (let ((let255 _90))
  (let ((let256 _2))
  (let ((let257 (ff.mul let256 let255)))
  (let ((let258 (= let257 let252)))
  (let ((let259 _0))
  (let ((let260 (ff.add let259 let234)))
  (let ((let261 (ff.mul let260 let260)))
  (let ((let262 (= let261 let190)))
  (let ((let263 (ff.mul let88 let96)))
  (let ((let264 _115))
  (let ((let265 _55))
  (let ((let266 (ff.mul let265 let96)))
  (let ((let267 _54))
  (let ((let268 (ff.mul let267 let96)))
  (let ((let269 (ff.add let268 let266 let264 let263 let71)))
  (let ((let270 (ff.add let268 let266 let71)))
  (let ((let271 (ff.mul let270 let264)))
  (let ((let272 (= let271 let269)))
  (let ((let273 (ff.mul let84 let96)))
  (let ((let274 _123))
  (let ((let275 _122))
  (let ((let276 (ff.add let264 let275 let274 let273)))
  (let ((let277 (ff.add let275 let274)))
  (let ((let278 (ff.mul let277 let264)))
  (let ((let279 (= let278 let276)))
  (let ((let280 _96))
  (let ((let281 (ff.mul let280 let96)))
  (let ((let282 (ff.add let281 let71)))
  (let ((let283 (ff.mul let282 let157)))
  (let ((let284 (= let283 let274)))
  (let ((let285 (ff.mul let280 let138)))
  (let ((let286 (= let285 let275)))
  (let ((let287 _116))
  (let ((let288 (ff.add let280 let287 let158)))
  (let ((let289 (ff.mul let287 let280)))
  (let ((let290 (= let289 let288)))
  (let ((let291 (ff.mul let287 let96)))
  (let ((let292 _5))
  (let ((let293 (ff.add let292 let175 let174 let291)))
  (let ((let294 (ff.mul let176 let292)))
  (let ((let295 (= let294 let293)))
  (let ((let296 (as ff2 FF0)))
  (let ((let297 (ff.mul let264 let96)))
  (let ((let298 (ff.mul let292 let96)))
  (let ((let299 (ff.add let298 let223 let297 let296)))
  (let ((let300 (ff.add let298 let71)))
  (let ((let301 (ff.mul let300 let224)))
  (let ((let302 (= let301 let299)))
  (let ((let303 (ff.mul let80 let96)))
  (let ((let304 _111))
  (let ((let305 (ff.mul let304 let96)))
  (let ((let306 _110))
  (let ((let307 (ff.mul let306 let96)))
  (let ((let308 (ff.add let195 let307 let305 let303 let296)))
  (let ((let309 (ff.add let307 let305 let71)))
  (let ((let310 (ff.mul let196 let309)))
  (let ((let311 (= let310 let308)))
  (let ((let312 _71))
  (let ((let313 _70))
  (let ((let314 (ff.add let313 let312)))
  (let ((let315 (ff.mul let166 let96)))
  (let ((let316 (ff.add let315 let71)))
  (let ((let317 (ff.mul let316 let314)))
  (let ((let318 (= let317 let304)))
  (let ((let319 (ff.mul let166 let185)))
  (let ((let320 (= let319 let306)))
  (let ((let321 _80))
  (let ((let322 (ff.mul let321 let96)))
  (let ((let323 (ff.mul let227 let96)))
  (let ((let324 (ff.add let323 let322 let315 let296)))
  (let ((let325 (ff.add let322 let71)))
  (let ((let326 (ff.add let323 let71)))
  (let ((let327 (ff.mul let326 let325)))
  (let ((let328 (= let327 let324)))
  (let ((let329 _104))
  (let ((let330 (ff.mul let329 let142)))
  (let ((let331 (= let330 let185)))
  (let ((let332 (ff.mul let125 let196)))
  (let ((let333 (= let332 let329)))
  (let ((let334 (ff.mul let125 let96)))
  (let ((let335 _38))
  (let ((let336 _37))
  (let ((let337 _26))
  (let ((let338 (ff.mul let337 let96)))
  (let ((let339 (ff.add let338 let336 let335 let334 let71)))
  (let ((let340 (ff.add let336 let335)))
  (let ((let341 (ff.add let338 let71)))
  (let ((let342 (ff.mul let341 let340)))
  (let ((let343 (= let342 let339)))
  (let ((let344 _100))
  (let ((let345 (ff.mul let344 let235)))
  (let ((let346 (= let345 let146)))
  (let ((let347 _59))
  (let ((let348 (ff.mul let347 let255)))
  (let ((let349 (= let348 let344)))
  (let ((let350 (ff.mul let142 let96)))
  (let ((let351 _98))
  (let ((let352 (ff.add let322 let351 let350 let71)))
  (let ((let353 (ff.mul let351 let325)))
  (let ((let354 (= let353 let352)))
  (let ((let355 (ff.mul let351 let96)))
  (let ((let356 _97))
  (let ((let357 _50))
  (let ((let358 (ff.add let357 let356 let355)))
  (let ((let359 (ff.mul let356 let357)))
  (let ((let360 (= let359 let358)))
  (let ((let361 (ff.mul let356 let96)))
  (let ((let362 (ff.add let223 let280 let361 let71)))
  (let ((let363 (ff.mul let224 let280)))
  (let ((let364 (= let363 let362)))
  (let ((let365 _95))
  (let ((let366 (ff.mul let365 let235)))
  (let ((let367 (= let366 let280)))
  (let ((let368 _94))
  (let ((let369 (ff.mul let368 let209)))
  (let ((let370 (= let369 let365)))
  (let ((let371 _93))
  (let ((let372 (ff.mul let371 let235)))
  (let ((let373 (= let372 let368)))
  (let ((let374 _92))
  (let ((let375 (ff.mul let374 let337)))
  (let ((let376 (= let375 let371)))
  (let ((let377 _3))
  (let ((let378 (ff.mul let377 let96)))
  (let ((let379 (ff.add let378 let71)))
  (let ((let380 _91))
  (let ((let381 (ff.mul let380 let379)))
  (let ((let382 (= let381 let374)))
  (let ((let383 (ff.mul let255 let96)))
  (let ((let384 _89))
  (let ((let385 (ff.add let244 let384 let383)))
  (let ((let386 (ff.mul let384 let244)))
  (let ((let387 (= let386 let385)))
  (let ((let388 (ff.mul let384 let96)))
  (let ((let389 _88))
  (let ((let390 (ff.mul let259 let96)))
  (let ((let391 (ff.add let390 let389 let388 let71)))
  (let ((let392 (ff.add let390 let71)))
  (let ((let393 (ff.mul let389 let392)))
  (let ((let394 (= let393 let391)))
  (let ((let395 (ff.mul let389 let96)))
  (let ((let396 _87))
  (let ((let397 _43))
  (let ((let398 (ff.add let397 let396 let395)))
  (let ((let399 (ff.mul let396 let397)))
  (let ((let400 (= let399 let398)))
  (let ((let401 (ff.mul let396 let96)))
  (let ((let402 _86))
  (let ((let403 (ff.add let228 let402 let401)))
  (let ((let404 (ff.mul let402 let228)))
  (let ((let405 (= let404 let403)))
  (let ((let406 (ff.mul let402 let96)))
  (let ((let407 (ff.add let136 let233 let406)))
  (let ((let408 (ff.mul let136 let233)))
  (let ((let409 (= let408 let407)))
  (let ((let410 _83))
  (let ((let411 _22))
  (let ((let412 _21))
  (let ((let413 (ff.add let412 let411 let410 let234)))
  (let ((let414 (ff.add let412 let411)))
  (let ((let415 (ff.mul let410 let414)))
  (let ((let416 (= let415 let413)))
  (let ((let417 (ff.mul let410 let96)))
  (let ((let418 _82))
  (let ((let419 (ff.add let336 let335 let418 let417)))
  (let ((let420 (ff.mul let418 let340)))
  (let ((let421 (= let420 let419)))
  (let ((let422 (ff.mul let418 let96)))
  (let ((let423 (ff.add let390 let267 let265 let422 let71)))
  (let ((let424 (ff.add let267 let265)))
  (let ((let425 (ff.mul let424 let392)))
  (let ((let426 (= let425 let423)))
  (let ((let427 (ff.add let412 let411 let238 let96)))
  (let ((let428 (ff.mul let427 let427)))
  (let ((let429 (= let428 let321)))
  (let ((let430 (ff.mul let357 let96)))
  (let ((let431 (ff.add let430 let136)))
  (let ((let432 (ff.mul let431 let431)))
  (let ((let433 (= let432 let238)))
  (let ((let434 _76))
  (let ((let435 (ff.mul let434 let209)))
  (let ((let436 (= let435 let136)))
  (let ((let437 _75))
  (let ((let438 (ff.mul let437 let392)))
  (let ((let439 (= let438 let434)))
  (let ((let440 _74))
  (let ((let441 (ff.mul let440 let377)))
  (let ((let442 (= let441 let437)))
  (let ((let443 (ff.mul let424 let256)))
  (let ((let444 (= let443 let440)))
  (let ((let445 _66))
  (let ((let446 (ff.mul let445 let96)))
  (let ((let447 (ff.add let446 let71)))
  (let ((let448 (ff.mul let447 let153)))
  (let ((let449 (= let448 let312)))
  (let ((let450 (ff.mul let445 let251)))
  (let ((let451 (= let450 let313)))
  (let ((let452 (ff.mul let347 let96)))
  (let ((let453 (ff.add let452 let223 let446 let296)))
  (let ((let454 (ff.add let452 let71)))
  (let ((let455 (ff.mul let454 let224)))
  (let ((let456 (= let455 let453)))
  (let ((let457 _10))
  (let ((let458 _9))
  (let ((let459 (ff.add let458 let457 let323)))
  (let ((let460 (ff.mul let459 let459)))
  (let ((let461 (= let460 let222)))
  (let ((let462 (ff.add let292 let357 let323)))
  (let ((let463 (ff.mul let292 let357)))
  (let ((let464 (= let463 let462)))
  (let ((let465 _33))
  (let ((let466 (ff.mul let465 let203)))
  (let ((let467 (= let466 let251)))
  (let ((let468 (ff.mul let203 let228)))
  (let ((let469 (= let468 let153)))
  (let ((let470 (ff.mul let203 let96)))
  (let ((let471 (ff.add let397 let347 let470)))
  (let ((let472 (ff.mul let397 let347)))
  (let ((let473 (= let472 let471)))
  (let ((let474 _58))
  (let ((let475 (ff.mul let474 let228)))
  (let ((let476 (= let475 let347)))
  (let ((let477 _57))
  (let ((let478 (ff.mul let477 let465)))
  (let ((let479 (= let478 let474)))
  (let ((let480 (ff.mul let424 let357)))
  (let ((let481 (= let480 let477)))
  (let ((let482 _1))
  (let ((let483 (ff.mul let482 let96)))
  (let ((let484 (ff.add let483 let71)))
  (let ((let485 (ff.mul let484 let228)))
  (let ((let486 (= let485 let265)))
  (let ((let487 (ff.mul let482 let300)))
  (let ((let488 (= let487 let267)))
  (let ((let489 _49))
  (let ((let490 (ff.add let397 let489 let430)))
  (let ((let491 (ff.mul let489 let397)))
  (let ((let492 (= let491 let490)))
  (let ((let493 (ff.mul let489 let96)))
  (let ((let494 _48))
  (let ((let495 (ff.add let458 let457 let494 let493)))
  (let ((let496 (ff.add let458 let457)))
  (let ((let497 (ff.mul let494 let496)))
  (let ((let498 (= let497 let495)))
  (let ((let499 (ff.mul let494 let96)))
  (let ((let500 _47))
  (let ((let501 (ff.add let208 let500 let499 let71)))
  (let ((let502 (ff.mul let500 let209)))
  (let ((let503 (= let502 let501)))
  (let ((let504 (ff.mul let500 let96)))
  (let ((let505 (as ff52435875175126190479447740508185965837690552500527637822603658699938581184511 FF0)))
  (let ((let506 (ff.mul let377 let505)))
  (let ((let507 (ff.add let506 let504 let296)))
  (let ((let508 (ff.mul let379 let379)))
  (let ((let509 (= let508 let507)))
  (let ((let510 (ff.mul let397 let96)))
  (let ((let511 (ff.add let298 let510 let71)))
  (let ((let512 (ff.mul let511 let511)))
  (let ((let513 (= let512 let207)))
  (let ((let514 (ff.mul let174 let96)))
  (let ((let515 (ff.mul let175 let96)))
  (let ((let516 (ff.add let515 let514 let336 let335 let510 let71)))
  (let ((let517 (ff.add let515 let514 let71)))
  (let ((let518 (ff.mul let517 let340)))
  (let ((let519 (= let518 let516)))
  (let ((let520 _41))
  (let ((let521 (ff.add let175 let174 let520 let229)))
  (let ((let522 (ff.mul let520 let176)))
  (let ((let523 (= let522 let521)))
  (let ((let524 (ff.mul let520 let96)))
  (let ((let525 (ff.add let298 let336 let335 let524 let71)))
  (let ((let526 (ff.mul let300 let340)))
  (let ((let527 (= let526 let525)))
  (let ((let528 (ff.mul let465 let96)))
  (let ((let529 (ff.add let528 let71)))
  (let ((let530 (ff.mul let529 let465)))
  (let ((let531 (= let530 let335)))
  (let ((let532 (ff.mul let465 let244)))
  (let ((let533 (= let532 let336)))
  (let ((let534 _32))
  (let ((let535 (ff.mul let534 let256)))
  (let ((let536 (= let535 let465)))
  (let ((let537 _31))
  (let ((let538 (ff.mul let537 let337)))
  (let ((let539 (= let538 let534)))
  (let ((let540 _30))
  (let ((let541 (ff.mul let540 let259)))
  (let ((let542 (= let541 let537)))
  (let ((let543 _29))
  (let ((let544 (ff.mul let543 let337)))
  (let ((let545 (= let544 let540)))
  (let ((let546 _28))
  (let ((let547 (ff.mul let546 let176)))
  (let ((let548 (= let547 let543)))
  (let ((let549 _27))
  (let ((let550 (ff.mul let549 let337)))
  (let ((let551 (= let550 let546)))
  (let ((let552 (ff.mul let414 let496)))
  (let ((let553 (= let552 let549)))
  (let ((let554 _25))
  (let ((let555 (ff.add let259 let554 let338)))
  (let ((let556 (ff.mul let554 let259)))
  (let ((let557 (= let556 let555)))
  (let ((let558 (ff.mul let554 let96)))
  (let ((let559 _24))
  (let ((let560 (ff.add let244 let559 let558)))
  (let ((let561 (ff.mul let559 let244)))
  (let ((let562 (= let561 let560)))
  (let ((let563 (ff.mul let559 let96)))
  (let ((let564 (ff.add let292 let412 let411 let563)))
  (let ((let565 (ff.mul let292 let414)))
  (let ((let566 (= let565 let564)))
  (let ((let567 (ff.mul let392 let482)))
  (let ((let568 (= let567 let411)))
  (let ((let569 (ff.mul let259 let377)))
  (let ((let570 (= let569 let412)))
  (let ((let571 (ff.mul let457 let96)))
  (let ((let572 (ff.mul let458 let96)))
  (let ((let573 (ff.add let572 let571 let71)))
  (let ((let574 (ff.mul let573 let482)))
  (let ((let575 (= let574 let174)))
  (let ((let576 (ff.mul let496 let292)))
  (let ((let577 (= let576 let175)))
  (let ((let578 (ff.mul let256 let96)))
  (let ((let579 (ff.add let578 let71)))
  (let ((let580 (ff.mul let579 let377)))
  (let ((let581 (= let580 let457)))
  (let ((let582 (ff.mul let256 let244)))
  (let ((let583 (= let582 let458)))
  (let ((let584 (ff.mul let292 let292)))
  (let ((let585 (= let584 let292)))
  (let ((let586 (ff.mul let244 let244)))
  (let ((let587 (= let586 let244)))
  (let ((let588 (ff.mul let377 let377)))
  (let ((let589 (= let588 let377)))
  (let ((let590 (ff.mul let256 let256)))
  (let ((let591 (= let590 let256)))
  (let ((let592 (ff.mul let482 let482)))
  (let ((let593 (= let592 let482)))
  (let ((let594 (ff.mul let259 let259)))
  (let ((let595 (= let594 let259)))
  (let ((let596 (and let595 let593 let591 let589 let587 let585 let583 let581 let577 let575 let570 let568 let566 let562 let557 let553 let551 let548 let545 let542 let539 let536 let533 let531 let527 let523 let519 let513 let509 let503 let498 let492 let488 let486 let481 let479 let476 let473 let469 let467 let464 let461 let456 let451 let449 let444 let442 let439 let436 let433 let429 let426 let421 let416 let409 let405 let400 let394 let387 let382 let376 let373 let370 let367 let364 let360 let354 let349 let346 let343 let333 let331 let328 let320 let318 let311 let302 let295 let290 let286 let284 let279 let272 let262 let258 let254 let250 let247 let243 let237 let232 let226 let221 let218 let211 let206 let202 let198 let194 let189 let183 let178 let170 let164 let161 let156 let148 let145 let141 let135 let130 let124 let116 let112 let106 let102 let95 let91 let87 let83 let79)))
  (let ((let597 (ite let3 let71 let74)))
  (let ((let598 (= let244 let597)))
  (let ((let599 (ite let4 let71 let74)))
  (let ((let600 (= let256 let599)))
  (let ((let601 (ite let1 let71 let74)))
  (let ((let602 (= let292 let601)))
  (let ((let603 (ite let2 let71 let74)))
  (let ((let604 (= let377 let603)))
  (let ((let605 (ite let7 let71 let74)))
  (let ((let606 (= let259 let605)))
  (let ((let607 (ite let0 let71 let74)))
  (let ((let608 (= let482 let607)))
  (let ((let609 (and let608 let606 let604 let602 let600 let598)))
  (let ((let610 (and let609 let596)))
  (let ((let611 (=> let610 let77)))
  (let ((let612 (not let611)))
  let612
)))))))))))))))))))))))))))))))))))))))))))))))))))))))))))))))))))))))))))))))))))))))))))))))))))))))))))))))))))))))))))))))))))))))))))))))))))))))))))))))))))))))))))))))))))))))))))))))))))))))))))))))))))))))))))))))))))))))))))))))))))))))))))))))))))))))))))))))))))))))))))))))))))))))))))))))))))))))))))))))))))))))))))))))))))))))))))))))))))))))))))))))))))))))))))))))))))))))))))))))))))))))))))))))))))))))))))))))))))))))))))))))))))))))))))))))))))))))))))))))))))))))))))))))))))))))))))))))))))))))))))))))))))))))))))))))))))))))))))))))))))))))))))))))))))))))))))))))))))))))))))))))))))))
)
(check-sat)
